examples/dynamic/debug12/ball_count_2d_hill_simple.01.redlog_global_2.smt2
(set-info :smt-lib-version 2.6)
(set-logic QF_NRA)
(set-info :source |Benchmarks generated from hycomp (https://es-static.fbk.eu/tools/hycomp/). BMC instances of non-linear hybrid automata taken from: Alessandro Cimatti, Sergio Mover, Stefano Tonetta, A quantifier-free SMT encoding of non-linear hybrid automata, FMCAD 2012 and Alessandro Cimatti, Sergio Mover, Stefano Tonetta, Quantier-free encoding of invariants for Hybrid Systems, Formal Methods in System Design. This instance solves a BMC problem of depth 2 and uses the encoding obtained with quantifier elimination using redlog encoding. Contacts: Sergio Mover (mover@fbk.eu), Stefano Tonetta (tonettas@fbk.eu), Alessandro Cimatti (cimatti@fbk.eu).|)
(set-info :category "industrial")
(set-info :status sat)
;; MathSAT API call trace
;; generated on Mon Mar 19 10:37:04 2012
(declare-fun b.y__AT0 () Real)
(declare-fun b.bool_atom__AT2 () Bool)
(declare-fun b.y__AT2 () Real)
(declare-fun b.counter.0__AT0 () Bool)
(declare-fun b.time__AT2 () Real)
(declare-fun b.EVENT.0__AT0 () Bool)
(declare-fun b.counter.3__AT0 () Bool)
(declare-fun b.counter.1__AT0 () Bool)
(declare-fun b.delta__AT2 () Real)
(declare-fun b.bool_atom__AT1 () Bool)
(declare-fun b.x__AT2 () Real)
(declare-fun b.x__AT1 () Real)
(declare-fun b.EVENT.0__AT2 () Bool)
(declare-fun b.EVENT.1__AT2 () Bool)
(declare-fun b.g__AT0 () Real)
(declare-fun b.speed_y__AT0 () Real)
(declare-fun b.event_is_timed__AT0 () Bool)
(declare-fun b.speed_y__AT2 () Real)
(declare-fun b.y__AT1 () Real)
(declare-fun b.counter.2__AT0 () Bool)
(declare-fun b.counter.0__AT1 () Bool)
(declare-fun b.counter.1__AT1 () Bool)
(declare-fun b.counter.2__AT1 () Bool)
(declare-fun b.counter.3__AT1 () Bool)
(declare-fun b.bool_atom__AT0 () Bool)
(declare-fun b.x__AT0 () Real)
(declare-fun b.EVENT.1__AT0 () Bool)
(declare-fun b.counter.0__AT2 () Bool)
(declare-fun b.delta__AT1 () Real)
(declare-fun b.speed_y__AT1 () Real)
(declare-fun b.counter.1__AT2 () Bool)
(declare-fun b.time__AT1 () Real)
(declare-fun b.EVENT.0__AT1 () Bool)
(declare-fun b.counter.2__AT2 () Bool)
(declare-fun b.time__AT0 () Real)
(declare-fun b.EVENT.1__AT1 () Bool)
(declare-fun b.counter.3__AT2 () Bool)
(declare-fun b.delta__AT0 () Real)
(declare-fun b.event_is_timed__AT2 () Bool)
(declare-fun b.event_is_timed__AT1 () Bool)
(assert (let ((.def_506 (* b.x__AT2 b.x__AT2)))
(let ((.def_502 (* 5.0 b.delta__AT2)))
(let ((.def_503 (* b.delta__AT2 .def_502)))
(let ((.def_504 (* (- 1.0) .def_503)))
(let ((.def_509 (+ .def_504 .def_506)))
(let ((.def_501 (* b.speed_y__AT2 b.delta__AT2)))
(let ((.def_510 (+ .def_501 .def_509)))
(let ((.def_511 (+ b.y__AT2 .def_510)))
(let ((.def_512 (<= 0.0 .def_511)))
(let ((.def_542 (not .def_512)))
(let ((.def_524 (* (- 10.0) b.delta__AT2)))
(let ((.def_525 (+ b.speed_y__AT2 .def_524)))
(let ((.def_526 (<= 0.0 .def_525)))
(let ((.def_543 (and .def_526 .def_542)))
(let ((.def_535 (+ b.y__AT2 .def_506)))
(let ((.def_540 (<= 0.0 .def_535)))
(let ((.def_537 (<= b.speed_y__AT2 0.0 )))
(let ((.def_541 (or .def_537 .def_540)))
(let ((.def_544 (or .def_541 .def_543)))
(let ((.def_536 (<= .def_535 0.0 )))
(let ((.def_538 (and .def_536 .def_537)))
(let ((.def_530 (<= .def_525 0.0 )))
(let ((.def_531 (not .def_530)))
(let ((.def_528 (= .def_511 0.0 )))
(let ((.def_529 (not .def_528)))
(let ((.def_532 (or .def_529 .def_531)))
(let ((.def_527 (or .def_512 .def_526)))
(let ((.def_533 (and .def_527 .def_532)))
(let ((.def_514 (* 20.0 b.x__AT2)))
(let ((.def_515 (* b.x__AT2 .def_514)))
(let ((.def_392 (* b.speed_y__AT2 b.speed_y__AT2)))
(let ((.def_516 (+ .def_392 .def_515)))
(let ((.def_517 (* 20.0 b.y__AT2)))
(let ((.def_519 (+ .def_517 .def_516)))
(let ((.def_522 (<= .def_519 0.0 )))
(let ((.def_523 (not .def_522)))
(let ((.def_534 (or .def_523 .def_533)))
(let ((.def_539 (or .def_534 .def_538)))
(let ((.def_545 (and .def_539 .def_544)))
(let ((.def_520 (<= 0.0 .def_519)))
(let ((.def_521 (not .def_520)))
(let ((.def_546 (or .def_521 .def_545)))
(let ((.def_499 (<= 0.0 b.delta__AT2)))
(let ((.def_500 (not .def_499)))
(let ((.def_513 (or .def_500 .def_512)))
(let ((.def_547 (and .def_513 .def_546)))
(let ((.def_482 (not b.EVENT.0__AT2)))
(let ((.def_480 (not b.EVENT.1__AT2)))
(let ((.def_496 (and .def_480 .def_482)))
(let ((.def_497 (not .def_496)))
(let ((.def_548 (or .def_497 .def_547)))
(let ((.def_194 (not b.counter.0__AT1)))
(let ((.def_184 (not b.counter.1__AT1)))
(let ((.def_491 (and .def_184 .def_194)))
(let ((.def_189 (not b.counter.2__AT1)))
(let ((.def_492 (and .def_189 .def_491)))
(let ((.def_203 (not b.counter.3__AT1)))
(let ((.def_493 (and .def_203 .def_492)))
(let ((.def_485 (* (- 1.0) b.x__AT2)))
(let ((.def_486 (* b.x__AT2 .def_485)))
(let ((.def_487 (<= .def_486 b.y__AT2)))
(let ((.def_60 (<= b.g__AT0 10.0 )))
(let ((.def_59 (<= 8.0 b.g__AT0)))
(let ((.def_61 (and .def_59 .def_60)))
(let ((.def_488 (and .def_61 .def_487)))
(let ((.def_483 (or .def_480 .def_482)))
(let ((.def_6 (not b.counter.0__AT2)))
(let ((.def_4 (not b.counter.1__AT2)))
(let ((.def_473 (or .def_4 .def_6)))
(let ((.def_477 (or b.counter.3__AT2 .def_473)))
(let ((.def_474 (or b.counter.2__AT2 .def_473)))
(let ((.def_9 (not b.counter.2__AT2)))
(let ((.def_472 (or .def_6 .def_9)))
(let ((.def_475 (and .def_472 .def_474)))
(let ((.def_12 (not b.counter.3__AT2)))
(let ((.def_476 (or .def_12 .def_475)))
(let ((.def_478 (and .def_476 .def_477)))
(let ((.def_484 (and .def_478 .def_483)))
(let ((.def_489 (and .def_484 .def_488)))
(let ((.def_293 (<= 0.0 b.delta__AT1)))
(let ((.def_279 (not b.EVENT.0__AT1)))
(let ((.def_277 (not b.EVENT.1__AT1)))
(let ((.def_290 (and .def_277 .def_279)))
(let ((.def_291 (not .def_290)))
(let ((.def_468 (or .def_291 .def_293)))
(let ((.def_469 (or b.EVENT.1__AT1 .def_468)))
(let ((.def_379 (= b.bool_atom__AT1 b.bool_atom__AT2)))
(let ((.def_375 (= b.counter.0__AT2 b.counter.0__AT1)))
(let ((.def_373 (= b.counter.1__AT2 b.counter.1__AT1)))
(let ((.def_371 (= b.counter.2__AT2 b.counter.2__AT1)))
(let ((.def_370 (= b.counter.3__AT2 b.counter.3__AT1)))
(let ((.def_372 (and .def_370 .def_371)))
(let ((.def_374 (and .def_372 .def_373)))
(let ((.def_376 (and .def_374 .def_375)))
(let ((.def_464 (and .def_376 .def_379)))
(let ((.def_465 (or .def_291 .def_464)))
(let ((.def_466 (or b.EVENT.1__AT1 .def_465)))
(let ((.def_235 (* (- 1.0) b.g__AT0)))
(let ((.def_452 (* .def_235 b.delta__AT1)))
(let ((.def_453 (* (- 1.0) b.speed_y__AT2)))
(let ((.def_456 (+ .def_453 .def_452)))
(let ((.def_457 (+ b.speed_y__AT1 .def_456)))
(let ((.def_458 (= .def_457 0.0 )))
(let ((.def_442 (* b.delta__AT1 b.delta__AT1)))
(let ((.def_238 (* (/ 1 2) .def_235)))
(let ((.def_443 (* .def_238 .def_442)))
(let ((.def_444 (* (- 1.0) b.y__AT2)))
(let ((.def_448 (+ .def_444 .def_443)))
(let ((.def_295 (* b.speed_y__AT1 b.delta__AT1)))
(let ((.def_449 (+ .def_295 .def_448)))
(let ((.def_450 (+ b.y__AT1 .def_449)))
(let ((.def_451 (= .def_450 0.0 )))
(let ((.def_459 (and .def_451 .def_458)))
(let ((.def_362 (= b.x__AT1 b.x__AT2)))
(let ((.def_460 (and .def_362 .def_459)))
(let ((.def_461 (or .def_291 .def_460)))
(let ((.def_365 (= b.y__AT1 b.y__AT2)))
(let ((.def_437 (and .def_362 .def_365)))
(let ((.def_368 (= b.speed_y__AT1 b.speed_y__AT2)))
(let ((.def_438 (and .def_368 .def_437)))
(let ((.def_434 (= b.delta__AT1 0.0 )))
(let ((.def_435 (and .def_290 .def_434)))
(let ((.def_436 (not .def_435)))
(let ((.def_439 (or .def_436 .def_438)))
(let ((.def_440 (or b.EVENT.1__AT1 .def_439)))
(let ((.def_427 (and .def_368 .def_376)))
(let ((.def_428 (or b.bool_atom__AT1 .def_427)))
(let ((.def_403 (or .def_6 b.counter.0__AT1)))
(let ((.def_402 (or b.counter.0__AT2 .def_194)))
(let ((.def_404 (and .def_402 .def_403)))
(let ((.def_405 (and .def_4 .def_404)))
(let ((.def_406 (or b.counter.1__AT1 .def_405)))
(let ((.def_401 (or b.counter.1__AT2 .def_184)))
(let ((.def_407 (and .def_401 .def_406)))
(let ((.def_418 (and .def_9 .def_407)))
(let ((.def_419 (or b.counter.2__AT1 .def_418)))
(let ((.def_413 (and .def_4 .def_194)))
(let ((.def_414 (or b.counter.1__AT1 .def_413)))
(let ((.def_415 (and .def_401 .def_414)))
(let ((.def_416 (and b.counter.2__AT2 .def_415)))
(let ((.def_417 (or .def_189 .def_416)))
(let ((.def_420 (and .def_417 .def_419)))
(let ((.def_421 (and b.counter.3__AT2 .def_420)))
(let ((.def_422 (or b.counter.3__AT1 .def_421)))
(let ((.def_408 (and b.counter.2__AT2 .def_407)))
(let ((.def_409 (or b.counter.2__AT1 .def_408)))
(let ((.def_397 (or b.counter.1__AT2 b.counter.1__AT1)))
(let ((.def_395 (and .def_4 b.counter.0__AT2)))
(let ((.def_396 (or .def_184 .def_395)))
(let ((.def_398 (and .def_396 .def_397)))
(let ((.def_399 (and .def_9 .def_398)))
(let ((.def_400 (or .def_189 .def_399)))
(let ((.def_410 (and .def_400 .def_409)))
(let ((.def_411 (and .def_12 .def_410)))
(let ((.def_412 (or .def_203 .def_411)))
(let ((.def_423 (and .def_412 .def_422)))
(let ((.def_181 (* b.speed_y__AT1 b.speed_y__AT1)))
(let ((.def_393 (= .def_181 .def_392)))
(let ((.def_390 (+ b.speed_y__AT1 b.speed_y__AT2)))
(let ((.def_391 (= .def_390 0.0 )))
(let ((.def_394 (and .def_391 .def_393)))
(let ((.def_424 (and .def_394 .def_423)))
(let ((.def_389 (not b.bool_atom__AT1)))
(let ((.def_425 (or .def_389 .def_424)))
(let ((.def_385 (<= 0.0 b.speed_y__AT1)))
(let ((.def_386 (not .def_385)))
(let ((.def_282 (* (- 1.0) b.x__AT1)))
(let ((.def_283 (* b.x__AT1 .def_282)))
(let ((.def_384 (= b.y__AT1 .def_283)))
(let ((.def_387 (and .def_384 .def_386)))
(let ((.def_388 (= b.bool_atom__AT1 .def_387)))
(let ((.def_426 (and .def_388 .def_425)))
(let ((.def_429 (and .def_426 .def_428)))
(let ((.def_430 (and .def_362 .def_429)))
(let ((.def_431 (and .def_365 .def_430)))
(let ((.def_432 (or .def_290 .def_431)))
(let ((.def_433 (or b.EVENT.1__AT1 .def_432)))
(let ((.def_441 (and .def_433 .def_440)))
(let ((.def_462 (and .def_441 .def_461)))
(let ((.def_349 (= b.time__AT1 b.time__AT2)))
(let ((.def_363 (and .def_349 .def_362)))
(let ((.def_366 (and .def_363 .def_365)))
(let ((.def_369 (and .def_366 .def_368)))
(let ((.def_377 (and .def_369 .def_376)))
(let ((.def_380 (and .def_377 .def_379)))
(let ((.def_381 (or .def_277 .def_380)))
(let ((.def_352 (* (- 1.0) b.time__AT2)))
(let ((.def_355 (+ b.delta__AT1 .def_352)))
(let ((.def_356 (+ b.time__AT1 .def_355)))
(let ((.def_357 (= .def_356 0.0 )))
(let ((.def_358 (or .def_291 .def_357)))
(let ((.def_359 (or b.EVENT.1__AT1 .def_358)))
(let ((.def_350 (or .def_290 .def_349)))
(let ((.def_351 (or b.EVENT.1__AT1 .def_350)))
(let ((.def_360 (and .def_351 .def_359)))
(let ((.def_382 (and .def_360 .def_381)))
(let ((.def_346 (= .def_291 b.event_is_timed__AT2)))
(let ((.def_344 (= b.event_is_timed__AT1 .def_290)))
(let ((.def_347 (and .def_344 .def_346)))
(let ((.def_383 (and .def_347 .def_382)))
(let ((.def_463 (and .def_383 .def_462)))
(let ((.def_467 (and .def_463 .def_466)))
(let ((.def_470 (and .def_467 .def_469)))
(let ((.def_471 (and .def_277 .def_470)))
(let ((.def_490 (and .def_471 .def_489)))
(let ((.def_494 (and .def_490 .def_493)))
(let ((.def_300 (* b.x__AT1 b.x__AT1)))
(let ((.def_296 (* 5.0 b.delta__AT1)))
(let ((.def_297 (* b.delta__AT1 .def_296)))
(let ((.def_298 (* (- 1.0) .def_297)))
(let ((.def_303 (+ .def_298 .def_300)))
(let ((.def_304 (+ .def_295 .def_303)))
(let ((.def_305 (+ b.y__AT1 .def_304)))
(let ((.def_306 (<= 0.0 .def_305)))
(let ((.def_336 (not .def_306)))
(let ((.def_318 (* (- 10.0) b.delta__AT1)))
(let ((.def_319 (+ b.speed_y__AT1 .def_318)))
(let ((.def_320 (<= 0.0 .def_319)))
(let ((.def_337 (and .def_320 .def_336)))
(let ((.def_329 (+ b.y__AT1 .def_300)))
(let ((.def_334 (<= 0.0 .def_329)))
(let ((.def_331 (<= b.speed_y__AT1 0.0 )))
(let ((.def_335 (or .def_331 .def_334)))
(let ((.def_338 (or .def_335 .def_337)))
(let ((.def_330 (<= .def_329 0.0 )))
(let ((.def_332 (and .def_330 .def_331)))
(let ((.def_324 (<= .def_319 0.0 )))
(let ((.def_325 (not .def_324)))
(let ((.def_322 (= .def_305 0.0 )))
(let ((.def_323 (not .def_322)))
(let ((.def_326 (or .def_323 .def_325)))
(let ((.def_321 (or .def_306 .def_320)))
(let ((.def_327 (and .def_321 .def_326)))
(let ((.def_308 (* 20.0 b.x__AT1)))
(let ((.def_309 (* b.x__AT1 .def_308)))
(let ((.def_310 (+ .def_181 .def_309)))
(let ((.def_311 (* 20.0 b.y__AT1)))
(let ((.def_313 (+ .def_311 .def_310)))
(let ((.def_316 (<= .def_313 0.0 )))
(let ((.def_317 (not .def_316)))
(let ((.def_328 (or .def_317 .def_327)))
(let ((.def_333 (or .def_328 .def_332)))
(let ((.def_339 (and .def_333 .def_338)))
(let ((.def_314 (<= 0.0 .def_313)))
(let ((.def_315 (not .def_314)))
(let ((.def_340 (or .def_315 .def_339)))
(let ((.def_294 (not .def_293)))
(let ((.def_307 (or .def_294 .def_306)))
(let ((.def_341 (and .def_307 .def_340)))
(let ((.def_342 (or .def_291 .def_341)))
(let ((.def_284 (<= .def_283 b.y__AT1)))
(let ((.def_285 (and .def_61 .def_284)))
(let ((.def_280 (or .def_277 .def_279)))
(let ((.def_270 (or .def_184 .def_194)))
(let ((.def_274 (or b.counter.3__AT1 .def_270)))
(let ((.def_271 (or b.counter.2__AT1 .def_270)))
(let ((.def_269 (or .def_189 .def_194)))
(let ((.def_272 (and .def_269 .def_271)))
(let ((.def_273 (or .def_203 .def_272)))
(let ((.def_275 (and .def_273 .def_274)))
(let ((.def_281 (and .def_275 .def_280)))
(let ((.def_286 (and .def_281 .def_285)))
(let ((.def_69 (<= 0.0 b.delta__AT0)))
(let ((.def_49 (not b.EVENT.0__AT0)))
(let ((.def_47 (not b.EVENT.1__AT0)))
(let ((.def_66 (and .def_47 .def_49)))
(let ((.def_67 (not .def_66)))
(let ((.def_265 (or .def_67 .def_69)))
(let ((.def_266 (or b.EVENT.1__AT0 .def_265)))
(let ((.def_168 (= b.bool_atom__AT0 b.bool_atom__AT1)))
(let ((.def_163 (= b.counter.0__AT0 b.counter.0__AT1)))
(let ((.def_160 (= b.counter.1__AT0 b.counter.1__AT1)))
(let ((.def_157 (= b.counter.2__AT0 b.counter.2__AT1)))
(let ((.def_155 (= b.counter.3__AT0 b.counter.3__AT1)))
(let ((.def_158 (and .def_155 .def_157)))
(let ((.def_161 (and .def_158 .def_160)))
(let ((.def_164 (and .def_161 .def_163)))
(let ((.def_261 (and .def_164 .def_168)))
(let ((.def_262 (or .def_67 .def_261)))
(let ((.def_263 (or b.EVENT.1__AT0 .def_262)))
(let ((.def_249 (* b.delta__AT0 .def_235)))
(let ((.def_250 (* (- 1.0) b.speed_y__AT1)))
(let ((.def_253 (+ .def_250 .def_249)))
(let ((.def_254 (+ b.speed_y__AT0 .def_253)))
(let ((.def_255 (= .def_254 0.0 )))
(let ((.def_239 (* b.delta__AT0 b.delta__AT0)))
(let ((.def_240 (* .def_238 .def_239)))
(let ((.def_242 (* (- 1.0) b.y__AT1)))
(let ((.def_245 (+ .def_242 .def_240)))
(let ((.def_72 (* b.delta__AT0 b.speed_y__AT0)))
(let ((.def_246 (+ .def_72 .def_245)))
(let ((.def_247 (+ b.y__AT0 .def_246)))
(let ((.def_248 (= .def_247 0.0 )))
(let ((.def_256 (and .def_248 .def_255)))
(let ((.def_146 (= b.x__AT0 b.x__AT1)))
(let ((.def_257 (and .def_146 .def_256)))
(let ((.def_258 (or .def_67 .def_257)))
(let ((.def_149 (= b.y__AT0 b.y__AT1)))
(let ((.def_230 (and .def_146 .def_149)))
(let ((.def_152 (= b.speed_y__AT0 b.speed_y__AT1)))
(let ((.def_231 (and .def_152 .def_230)))
(let ((.def_227 (= b.delta__AT0 0.0 )))
(let ((.def_228 (and .def_66 .def_227)))
(let ((.def_229 (not .def_228)))
(let ((.def_232 (or .def_229 .def_231)))
(let ((.def_233 (or b.EVENT.1__AT0 .def_232)))
(let ((.def_220 (and .def_152 .def_164)))
(let ((.def_221 (or b.bool_atom__AT0 .def_220)))
(let ((.def_195 (or b.counter.0__AT0 .def_194)))
(let ((.def_30 (not b.counter.0__AT0)))
(let ((.def_193 (or .def_30 b.counter.0__AT1)))
(let ((.def_196 (and .def_193 .def_195)))
(let ((.def_197 (and .def_184 .def_196)))
(let ((.def_198 (or b.counter.1__AT0 .def_197)))
(let ((.def_28 (not b.counter.1__AT0)))
(let ((.def_192 (or .def_28 b.counter.1__AT1)))
(let ((.def_199 (and .def_192 .def_198)))
(let ((.def_211 (and .def_189 .def_199)))
(let ((.def_212 (or b.counter.2__AT0 .def_211)))
(let ((.def_206 (and .def_30 .def_184)))
(let ((.def_207 (or b.counter.1__AT0 .def_206)))
(let ((.def_208 (and .def_192 .def_207)))
(let ((.def_209 (and b.counter.2__AT1 .def_208)))
(let ((.def_33 (not b.counter.2__AT0)))
(let ((.def_210 (or .def_33 .def_209)))
(let ((.def_213 (and .def_210 .def_212)))
(let ((.def_214 (and b.counter.3__AT1 .def_213)))
(let ((.def_215 (or b.counter.3__AT0 .def_214)))
(let ((.def_200 (and b.counter.2__AT1 .def_199)))
(let ((.def_201 (or b.counter.2__AT0 .def_200)))
(let ((.def_187 (or b.counter.1__AT0 b.counter.1__AT1)))
(let ((.def_185 (and b.counter.0__AT1 .def_184)))
(let ((.def_186 (or .def_28 .def_185)))
(let ((.def_188 (and .def_186 .def_187)))
(let ((.def_190 (and .def_188 .def_189)))
(let ((.def_191 (or .def_33 .def_190)))
(let ((.def_202 (and .def_191 .def_201)))
(let ((.def_204 (and .def_202 .def_203)))
(let ((.def_36 (not b.counter.3__AT0)))
(let ((.def_205 (or .def_36 .def_204)))
(let ((.def_216 (and .def_205 .def_215)))
(let ((.def_86 (* b.speed_y__AT0 b.speed_y__AT0)))
(let ((.def_182 (= .def_86 .def_181)))
(let ((.def_179 (+ b.speed_y__AT0 b.speed_y__AT1)))
(let ((.def_180 (= .def_179 0.0 )))
(let ((.def_183 (and .def_180 .def_182)))
(let ((.def_217 (and .def_183 .def_216)))
(let ((.def_178 (not b.bool_atom__AT0)))
(let ((.def_218 (or .def_178 .def_217)))
(let ((.def_174 (<= 0.0 b.speed_y__AT0)))
(let ((.def_175 (not .def_174)))
(let ((.def_54 (* (- 1.0) b.x__AT0)))
(let ((.def_55 (* b.x__AT0 .def_54)))
(let ((.def_173 (= b.y__AT0 .def_55)))
(let ((.def_176 (and .def_173 .def_175)))
(let ((.def_177 (= b.bool_atom__AT0 .def_176)))
(let ((.def_219 (and .def_177 .def_218)))
(let ((.def_222 (and .def_219 .def_221)))
(let ((.def_223 (and .def_146 .def_222)))
(let ((.def_224 (and .def_149 .def_223)))
(let ((.def_225 (or .def_66 .def_224)))
(let ((.def_226 (or b.EVENT.1__AT0 .def_225)))
(let ((.def_234 (and .def_226 .def_233)))
(let ((.def_259 (and .def_234 .def_258)))
(let ((.def_133 (= b.time__AT0 b.time__AT1)))
(let ((.def_147 (and .def_133 .def_146)))
(let ((.def_150 (and .def_147 .def_149)))
(let ((.def_153 (and .def_150 .def_152)))
(let ((.def_165 (and .def_153 .def_164)))
(let ((.def_169 (and .def_165 .def_168)))
(let ((.def_170 (or .def_47 .def_169)))
(let ((.def_136 (* (- 1.0) b.time__AT1)))
(let ((.def_139 (+ b.delta__AT0 .def_136)))
(let ((.def_140 (+ b.time__AT0 .def_139)))
(let ((.def_141 (= .def_140 0.0 )))
(let ((.def_142 (or .def_67 .def_141)))
(let ((.def_143 (or b.EVENT.1__AT0 .def_142)))
(let ((.def_134 (or .def_66 .def_133)))
(let ((.def_135 (or b.EVENT.1__AT0 .def_134)))
(let ((.def_144 (and .def_135 .def_143)))
(let ((.def_171 (and .def_144 .def_170)))
(let ((.def_130 (= .def_67 b.event_is_timed__AT1)))
(let ((.def_128 (= b.event_is_timed__AT0 .def_66)))
(let ((.def_131 (and .def_128 .def_130)))
(let ((.def_172 (and .def_131 .def_171)))
(let ((.def_260 (and .def_172 .def_259)))
(let ((.def_264 (and .def_260 .def_263)))
(let ((.def_267 (and .def_264 .def_266)))
(let ((.def_268 (and .def_47 .def_267)))
(let ((.def_287 (and .def_268 .def_286)))
(let ((.def_31 (and .def_28 .def_30)))
(let ((.def_34 (and .def_31 .def_33)))
(let ((.def_37 (and .def_34 .def_36)))
(let ((.def_288 (and .def_37 .def_287)))
(let ((.def_78 (* b.x__AT0 b.x__AT0)))
(let ((.def_74 (* 5.0 b.delta__AT0)))
(let ((.def_75 (* b.delta__AT0 .def_74)))
(let ((.def_76 (* (- 1.0) .def_75)))
(let ((.def_81 (+ .def_76 .def_78)))
(let ((.def_82 (+ .def_72 .def_81)))
(let ((.def_83 (+ b.y__AT0 .def_82)))
(let ((.def_84 (<= 0.0 .def_83)))
(let ((.def_120 (not .def_84)))
(let ((.def_101 (* (- 1.0) b.speed_y__AT0)))
(let ((.def_102 (* 10.0 b.delta__AT0)))
(let ((.def_103 (+ .def_102 .def_101)))
(let ((.def_104 (<= .def_103 0.0 )))
(let ((.def_121 (and .def_104 .def_120)))
(let ((.def_113 (+ b.y__AT0 .def_78)))
(let ((.def_118 (<= 0.0 .def_113)))
(let ((.def_115 (<= b.speed_y__AT0 0.0 )))
(let ((.def_119 (or .def_115 .def_118)))
(let ((.def_122 (or .def_119 .def_121)))
(let ((.def_114 (<= .def_113 0.0 )))
(let ((.def_116 (and .def_114 .def_115)))
(let ((.def_108 (<= 0.0 .def_103)))
(let ((.def_109 (not .def_108)))
(let ((.def_106 (= .def_83 0.0 )))
(let ((.def_107 (not .def_106)))
(let ((.def_110 (or .def_107 .def_109)))
(let ((.def_105 (or .def_84 .def_104)))
(let ((.def_111 (and .def_105 .def_110)))
(let ((.def_88 (* 20.0 b.x__AT0)))
(let ((.def_89 (* b.x__AT0 .def_88)))
(let ((.def_90 (+ .def_86 .def_89)))
(let ((.def_91 (* 20.0 b.y__AT0)))
(let ((.def_93 (+ .def_91 .def_90)))
(let ((.def_96 (<= .def_93 0.0 )))
(let ((.def_97 (not .def_96)))
(let ((.def_112 (or .def_97 .def_111)))
(let ((.def_117 (or .def_112 .def_116)))
(let ((.def_123 (and .def_117 .def_122)))
(let ((.def_94 (<= 0.0 .def_93)))
(let ((.def_95 (not .def_94)))
(let ((.def_124 (or .def_95 .def_123)))
(let ((.def_70 (not .def_69)))
(let ((.def_85 (or .def_70 .def_84)))
(let ((.def_125 (and .def_85 .def_124)))
(let ((.def_126 (or .def_67 .def_125)))
(let ((.def_56 (<= .def_55 b.y__AT0)))
(let ((.def_62 (and .def_56 .def_61)))
(let ((.def_50 (or .def_47 .def_49)))
(let ((.def_40 (or .def_28 .def_30)))
(let ((.def_44 (or b.counter.3__AT0 .def_40)))
(let ((.def_41 (or b.counter.2__AT0 .def_40)))
(let ((.def_39 (or .def_30 .def_33)))
(let ((.def_42 (and .def_39 .def_41)))
(let ((.def_43 (or .def_36 .def_42)))
(let ((.def_45 (and .def_43 .def_44)))
(let ((.def_51 (and .def_45 .def_50)))
(let ((.def_63 (and .def_51 .def_62)))
(let ((.def_25 (= b.y__AT0 10.0 )))
(let ((.def_21 (= b.x__AT0 0.0 )))
(let ((.def_17 (= b.time__AT0 0.0 )))
(let ((.def_19 (and .def_17 b.event_is_timed__AT0)))
(let ((.def_22 (and .def_19 .def_21)))
(let ((.def_26 (and .def_22 .def_25)))
(let ((.def_38 (and .def_26 .def_37)))
(let ((.def_64 (and .def_38 .def_63)))
(let ((.def_7 (and .def_4 .def_6)))
(let ((.def_10 (and .def_7 .def_9)))
(let ((.def_13 (and .def_10 .def_12)))
(let ((.def_14 (not .def_13)))
(let ((.def_65 (and .def_14 .def_64)))
(let ((.def_127 (and .def_65 .def_126)))
(let ((.def_289 (and .def_127 .def_288)))
(let ((.def_343 (and .def_289 .def_342)))
(let ((.def_495 (and .def_343 .def_494)))
(let ((.def_549 (and .def_495 .def_548)))
.def_549))))))))))))))))))))))))))))))))))))))))))))))))))))))))))))))))))))))))))))))))))))))))))))))))))))))))))))))))))))))))))))))))))))))))))))))))))))))))))))))))))))))))))))))))))))))))))))))))))))))))))))))))))))))))))))))))))))))))))))))))))))))))))))))))))))))))))))))))))))))))))))))))))))))))))))))))))))))))))))))))))))))))))))))))))))))))))))))))))))))))))))))))))))))))))))))))))))))))))))))))))))))))))))))))))))))))))))))))))))))))))))))))))))))))))))))))))))))
(check-sat)
(exit)
